c t pwmc
c file mc2023_track4_083.cnf
p cnf 301 772
c p show 4 5 6 7 8 9 10 11 12 13 14 15 16 17 18 19 123 124 125 126 127 128 129 130 131 132 133 134 135 136 137 138 226 227 228 229 230 231 232 233 234 235 236 237 238 239 240 241 0
3 0
105 0
-106 0
224 0
-225 0
300 0
-298 0
-299 0
214 221 189 215 208 213 207 211 217 219 209 212 220 216 206 210 204 205 218 203 190 191 192 193 196 195 197 198 199 200 201 202 194 0
97 102 70 96 98 90 91 89 101 99 95 92 100 93 85 86 88 87 94 71 77 76 80 84 81 83 82 78 79 72 74 75 73 0
292 293 290 291 0
286 289 287 288 0
40 -39 -24 0
-40 -8 39 0
40 -39 8 0
-40 24 39 0
-144 9 194 0
144 -9 194 0
-145 -10 -195 0
145 10 -195 0
-145 10 195 0
145 -10 195 0
-146 -11 -196 0
146 11 -196 0
-146 11 196 0
146 -11 196 0
-147 -12 -197 0
147 12 -197 0
-147 12 197 0
147 -12 197 0
37 5 -36 0
-37 21 36 0
15 -46 47 0
46 -47 31 0
46 -45 -30 0
45 -46 -14 0
46 -45 14 0
49 -48 17 0
-49 33 48 0
-47 48 -32 0
47 -16 -48 0
-47 16 48 0
47 32 -48 0
-31 -46 47 0
46 -47 -15 0
41 26 -42 0
41 -40 -25 0
-41 40 -9 0
40 -41 25 0
41 -40 9 0
-144 -9 -194 0
144 9 -194 0
168 -167 17 0
167 152 -168 0
-166 -151 167 0
-16 166 -167 0
-166 16 167 0
151 166 -167 0
-165 -150 166 0
165 -15 -166 0
-165 15 166 0
165 150 -166 0
-164 -149 165 0
164 -165 -14 0
-164 14 165 0
164 149 -165 0
-163 -148 164 0
163 -13 -164 0
-163 13 164 0
-13 -148 -198 0
148 13 -198 0
139 4 -189 0
45 -46 30 0
45 -29 -44 0
-13 44 -45 0
45 13 -44 0
29 44 -45 0
44 -28 -43 0
-44 -12 43 0
44 12 -43 0
-44 28 43 0
43 -42 -27 0
42 -11 -43 0
11 43 -42 0
42 27 -43 0
42 -41 -26 0
41 -10 -42 0
-19 -35 -90 0
35 -90 19 0
-35 19 90 0
-19 35 90 0
-19 -35 -91 0
35 -91 19 0
-35 19 91 0
-33 17 83 0
-17 33 83 0
-34 -18 -84 0
46 -30 14 0
-47 31 -15 0
68 -69 -67 0
-68 -69 67 0
-31 15 47 0
32 -16 -48 0
169 -153 18 0
68 69 67 0
-68 69 -67 0
-19 35 97 0
-19 -35 -98 0
35 -98 19 0
-35 19 98 0
131 -28 1 0
-131 28 1 0
131 -12 -1 0
-131 12 -1 0
132 -29 1 0
29 -132 1 0
-19 35 87 0
-19 -35 -88 0
35 19 -88 0
-35 19 88 0
-19 35 88 0
-19 -35 -89 0
35 -89 19 0
-41 42 10 0
-35 19 89 0
-19 35 89 0
-19 -35 -94 0
35 -94 19 0
-35 19 94 0
-19 35 94 0
-19 -35 -95 0
35 -95 19 0
-35 19 95 0
-19 35 95 0
-68 35 19 0
-23 39 -38 0
-39 38 -7 0
7 39 -38 0
-39 38 23 0
38 -22 -37 0
-38 37 -6 0
38 -37 6 0
-38 22 37 0
-21 37 -36 0
-37 -5 36 0
44 12 -28 0
29 -13 -45 0
-33 -17 -83 0
45 -29 13 0
-19 35 98 0
-19 -35 -99 0
35 -99 19 0
-35 19 99 0
-19 35 99 0
-19 -35 -100 0
-19 35 91 0
-19 -35 -92 0
35 -92 19 0
-35 19 92 0
-19 35 92 0
-19 -35 -93 0
35 -93 19 0
-19 35 93 0
-8 143 193 0
-143 8 193 0
8 143 -193 0
-143 -8 -193 0
-7 142 192 0
-142 7 192 0
7 142 -192 0
-142 -7 -192 0
-13 148 198 0
-149 -14 -199 0
149 14 -199 0
14 -149 199 0
149 -14 199 0
-15 -150 -200 0
150 15 -200 0
-154 -206 -19 0
154 -19 205 0
-154 19 205 0
154 -205 19 0
-37 -5 21 0
-187 -154 -19 0
29 -13 79 0
-30 -14 -80 0
38 -22 6 0
-39 23 -7 0
-19 35 -63 0
154 -183 -19 0
-154 182 19 0
14 30 -80 0
-30 14 80 0
39 7 -23 0
-40 24 -8 0
-4 -139 -189 0
-187 -186 188 0
187 186 188 0
-35 19 93 0
-187 186 -188 0
-153 18 203 0
18 153 -203 0
5 -140 190 0
140 -5 190 0
-6 -141 -191 0
141 6 -191 0
6 -141 191 0
-6 141 191 0
41 9 -25 0
151 16 -201 0
-16 -151 -201 0
-15 150 200 0
15 -150 200 0
-151 16 201 0
-16 151 201 0
-17 -152 -202 0
152 17 -202 0
17 -152 202 0
152 -17 202 0
-153 -18 -203 0
64 -35 19 0
-154 -205 -19 0
154 -19 204 0
-154 19 204 0
154 -204 19 0
-154 -204 -19 0
-18 153 203 0
154 -206 19 0
-154 19 206 0
154 -19 206 0
-154 -207 -19 0
154 -207 19 0
-154 19 207 0
154 -19 207 0
13 -148 198 0
4 -139 189 0
-4 139 189 0
140 5 -190 0
-42 -10 26 0
169 -153 -168 0
168 -18 -169 0
169 18 -168 0
168 153 -169 0
-167 168 -152 0
167 -17 -168 0
-50 51 -35 0
50 -19 -51 0
-50 51 19 0
50 35 -51 0
50 -34 -49 0
49 -50 -18 0
50 18 -49 0
49 34 -50 0
-48 49 -33 0
-49 -17 48 0
163 148 -164 0
-162 -147 163 0
158 -159 143 0
162 -163 -12 0
147 162 -163 0
-146 -161 162 0
161 -162 -11 0
-162 163 12 0
-161 162 11 0
161 -162 146 0
-160 161 -145 0
160 -161 -10 0
-160 161 10 0
160 145 -161 0
-144 160 -159 0
159 -160 -9 0
9 160 -159 0
159 144 -160 0
-5 -140 -190 0
-143 159 -158 0
158 -159 -8 0
159 8 -158 0
169 154 -170 0
-236 149 2 0
236 -149 2 0
-235 13 -2 0
235 -13 -2 0
-38 22 -6 0
31 15 -81 0
-41 25 -9 0
40 -24 8 0
-31 -15 -81 0
-14 30 80 0
-44 28 -12 0
43 11 -27 0
187 -186 -188 0
-187 154 19 0
31 -15 81 0
-31 15 81 0
37 -21 5 0
-29 13 79 0
29 13 -79 0
158 -142 -157 0
157 -158 -7 0
158 7 -157 0
157 -158 142 0
-156 157 -141 0
156 -6 -157 0
-156 157 6 0
156 141 -157 0
-140 156 -155 0
-5 -156 155 0
5 156 -155 0
140 -156 155 0
-169 -154 170 0
169 -170 -19 0
-169 170 19 0
42 10 -26 0
-16 -32 -82 0
-236 14 -2 0
236 -14 -2 0
132 -13 -1 0
-132 13 -1 0
234 -147 2 0
-234 147 2 0
234 -12 -2 0
-234 12 -2 0
235 -148 2 0
-235 148 2 0
-279 276 288 0
-280 -283 -290 0
280 283 -290 0
283 -280 290 0
-283 280 290 0
-281 -284 -291 0
284 281 -291 0
-281 284 291 0
-284 281 291 0
-282 -285 -292 0
-127 24 1 0
127 -8 -1 0
-127 8 -1 0
128 -25 1 0
35 -100 19 0
-35 19 100 0
-19 35 100 0
-19 -35 -101 0
35 -101 19 0
-35 19 101 0
-19 35 101 0
-29 -13 -79 0
69 102 -103 0
123 -20 1 0
-43 -11 27 0
-123 20 1 0
123 -1 -4 0
-123 4 -1 0
124 -21 1 0
-231 144 2 0
231 -9 -2 0
-231 9 -2 0
232 -145 2 0
-232 145 2 0
232 -10 -2 0
-232 10 -2 0
233 -146 2 0
-233 146 2 0
233 -11 -2 0
-233 11 -2 0
154 -215 19 0
-154 19 215 0
154 -19 215 0
-154 -19 -216 0
154 -216 19 0
-154 19 216 0
154 -19 216 0
285 282 -292 0
-282 285 292 0
-285 282 292 0
-36 20 -4 0
-153 240 2 0
237 -150 2 0
-237 150 2 0
237 -15 -2 0
-237 15 -2 0
238 -151 2 0
-238 151 2 0
238 -16 -2 0
-238 16 -2 0
239 -152 2 0
-239 152 2 0
239 -17 -2 0
-230 8 -2 0
231 -144 2 0
126 -23 1 0
-126 23 1 0
-154 -212 -19 0
154 -212 19 0
-154 19 212 0
226 -139 2 0
-226 139 2 0
226 -2 -4 0
-226 4 -2 0
227 -140 2 0
-227 140 2 0
227 -5 -2 0
-227 5 -2 0
228 -141 2 0
-228 141 2 0
228 -6 -2 0
-228 6 -2 0
229 -142 2 0
-154 19 220 0
154 -220 19 0
-154 -220 -19 0
188 221 -222 0
154 -19 220 0
154 -19 219 0
-154 19 219 0
154 -219 19 0
-154 -219 -19 0
154 -19 218 0
-154 19 218 0
154 -218 19 0
-124 21 1 0
124 -5 -1 0
-124 5 -1 0
125 -22 1 0
-239 17 -2 0
-125 22 1 0
125 -6 -1 0
-125 6 -1 0
135 -16 -1 0
-135 16 -1 0
136 -33 1 0
-136 33 1 0
-128 25 1 0
128 -9 -1 0
-128 9 -1 0
129 -26 1 0
-129 26 1 0
129 -10 -1 0
-129 10 -1 0
130 -27 1 0
-130 27 1 0
130 -11 -1 0
-130 11 -1 0
126 -7 -1 0
-126 7 -1 0
127 -24 1 0
-229 142 2 0
229 -7 -2 0
-229 7 -2 0
230 -143 2 0
-230 143 2 0
230 -8 -2 0
-154 19 217 0
154 -19 217 0
-154 -19 -218 0
133 -30 1 0
-133 30 1 0
133 -14 -1 0
-133 14 -1 0
134 -31 1 0
31 -134 1 0
134 -15 -1 0
-134 15 -1 0
-135 32 1 0
147 -163 -12 0
-146 162 11 0
-24 8 74 0
24 -8 74 0
-143 159 8 0
144 -160 -9 0
26 10 -76 0
-10 -26 -76 0
25 -9 75 0
9 -25 75 0
-144 9 160 0
145 -161 -10 0
25 9 -75 0
-25 -9 -75 0
-145 161 10 0
146 -162 -11 0
27 11 -77 0
-11 -27 -77 0
-142 158 7 0
-22 -6 -72 0
-23 7 73 0
-147 163 12 0
148 -13 -164 0
23 7 -73 0
-23 -7 -73 0
-148 13 164 0
149 -165 -14 0
22 -6 72 0
-22 6 72 0
50 -34 18 0
-149 14 165 0
150 -15 -166 0
22 6 -72 0
-20 -70 -4 0
4 20 -70 0
135 -32 1 0
32 16 -82 0
-24 -8 -74 0
24 8 -74 0
34 -18 84 0
-19 -35 -85 0
35 19 -85 0
-35 19 85 0
-19 35 85 0
-19 -35 -86 0
35 19 -86 0
-35 19 86 0
-19 35 86 0
-19 -35 -87 0
35 -87 19 0
-35 19 87 0
-19 -35 -96 0
35 -96 19 0
-35 19 96 0
-19 35 96 0
-19 -35 -97 0
35 -97 19 0
-35 19 97 0
143 -8 -159 0
26 -10 76 0
-26 10 76 0
136 -17 -1 0
-136 17 -1 0
137 -34 1 0
-137 34 1 0
137 -18 -1 0
-137 18 -1 0
-138 35 1 0
-138 19 -1 0
-155 139 -4 0
140 -5 -156 0
28 -12 78 0
12 -28 78 0
32 -16 82 0
23 -7 73 0
18 34 -84 0
-34 18 84 0
240 -18 -2 0
18 -240 -2 0
154 -241 2 0
-241 -2 19 0
-277 -274 -286 0
277 274 -286 0
-274 277 286 0
274 -277 286 0
-275 -278 -287 0
275 278 -287 0
278 -275 287 0
-278 275 287 0
-276 -279 -288 0
279 276 -288 0
-276 279 288 0
154 -19 212 0
-154 -213 -19 0
154 -213 19 0
-154 -19 -217 0
154 -217 19 0
-154 -208 -19 0
154 -208 19 0
-154 19 208 0
154 -19 208 0
-154 -209 -19 0
154 -209 19 0
-154 19 209 0
154 -19 209 0
-154 -210 -19 0
154 -210 19 0
-154 19 210 0
154 -19 210 0
-154 -211 -19 0
16 -32 82 0
154 -211 19 0
-154 19 211 0
154 -19 211 0
-240 153 2 0
-21 -5 -71 0
21 5 -71 0
-33 49 17 0
-50 34 -18 0
151 -16 -167 0
-150 15 166 0
-21 5 71 0
21 -5 71 0
-140 5 156 0
141 -6 -157 0
28 12 -78 0
-28 -12 -78 0
27 -11 77 0
-27 11 77 0
-141 6 157 0
142 -7 -158 0
30 -46 -14 0
33 17 -83 0
-68 -19 -35 0
-154 19 213 0
154 -19 213 0
-154 -19 -214 0
154 -214 19 0
-154 19 214 0
154 -19 214 0
-154 -19 -215 0
-151 16 167 0
152 -17 -168 0
20 -4 70 0
-20 4 70 0
33 -49 -17 0
-32 48 16 0
-152 17 168 0
-169 153 -18 0
-174 175 0
175 -176 0
241 -19 0
58 -59 0
-57 58 0
-173 174 0
174 -175 0
-176 177 0
176 -177 0
-175 176 0
-58 59 0
59 -60 0
-59 60 0
60 -61 0
-60 61 0
-20 36 0
-54 55 0
54 -55 0
-53 54 0
53 -54 0
-207 -221 0
-208 -221 0
-209 -221 0
-210 -221 0
-211 -221 0
-212 -221 0
-206 -221 0
-205 -221 0
-204 -221 0
-203 -221 0
-213 -221 0
103 -102 0
-69 103 0
-101 -102 0
55 -56 0
-55 56 0
56 -57 0
-172 173 0
173 -174 0
241 -154 0
-67 66 0
67 -66 0
-184 183 0
183 -182 0
-183 182 0
182 -181 0
172 -173 0
-171 172 0
171 -172 0
170 -171 0
184 -183 0
-185 184 0
-170 171 0
-178 179 0
178 -179 0
185 -184 0
-177 178 0
177 -178 0
186 -185 0
-186 185 0
-52 53 0
52 -53 0
-51 52 0
51 -52 0
-56 57 0
57 -58 0
179 -180 0
-179 180 0
-181 180 0
-180 181 0
-182 181 0
-66 65 0
66 -65 0
-65 64 0
64 -63 0
63 -64 0
-62 63 0
62 -63 0
-61 62 0
61 -62 0
-89 -102 0
-90 -102 0
-91 -102 0
-92 -102 0
-93 -102 0
222 -221 0
-188 222 0
-94 -102 0
-220 -221 0
-87 -102 0
-219 -221 0
4 155 0
36 4 0
-19 138 0
-100 -102 0
-99 -102 0
-98 -102 0
-97 -102 0
-96 -102 0
-95 -102 0
222 -223 0
-2 -222 0
2 222 0
-297 295 0
-295 297 0
-296 294 0
-294 296 0
1 103 0
-1 -103 0
103 -104 0
-216 -221 0
-215 -221 0
-214 -221 0
-218 -221 0
-217 -221 0
-70 -102 0
138 -35 0
65 -64 0
-139 155 0
-88 -102 0
-74 -102 0
-73 -102 0
-72 -102 0
-71 -102 0
293 -223 0
-291 -293 0
-290 -293 0
-292 -293 0
223 -293 0
104 -289 0
289 -104 0
-288 -289 0
-287 -289 0
-286 -289 0
-197 -221 0
-198 -221 0
-199 -221 0
-200 -221 0
-201 -221 0
-202 -221 0
-189 -221 0
-190 -221 0
-191 -221 0
-192 -221 0
-193 -221 0
-194 -221 0
-195 -221 0
-221 -196 0
-86 -102 0
-85 -102 0
-84 -102 0
-83 -102 0
-82 -102 0
-81 -102 0
-80 -102 0
-79 -102 0
-78 -102 0
-77 -102 0
-76 -102 0
-102 -75 0
c p weight 128 0.22927085 0
c p weight -128 0.77072915 0
c p weight 129 0.68707136 0
c p weight -129 0.31292864 0
c p weight 130 0.72694103 0
c p weight -130 0.27305897 0
c p weight 131 0.68339105 0
c p weight -131 0.31660895 0
c p weight 4 0.21377463 0
c p weight -4 0.78622537 0
c p weight 5 0.77447758 0
c p weight -5 0.22552242 0
c p weight 6 0.79890019 0
c p weight -6 0.20109981 0
c p weight 7 0.68980950 0
c p weight -7 0.31019050 0
c p weight 8 0.59570647 0
c p weight -8 0.40429353 0
c p weight 9 0.31837004 0
c p weight -9 0.68162996 0
c p weight 10 0.28492137 0
c p weight -10 0.71507863 0
c p weight 11 0.47840458 0
c p weight -11 0.52159542 0
c p weight 12 0.72964019 0
c p weight -12 0.27035981 0
c p weight 13 0.70255021 0
c p weight -13 0.29744979 0
c p weight 14 0.35186774 0
c p weight -14 0.64813226 0
c p weight 15 0.71131162 0
c p weight -15 0.28868838 0
c p weight 16 0.46645451 0
c p weight -16 0.53354549 0
c p weight 17 0.67655944 0
c p weight -17 0.32344056 0
c p weight 18 0.62738340 0
c p weight -18 0.37261660 0
c p weight 19 0.66155975 0
c p weight -19 0.33844025 0
c p weight 132 0.38133240 0
c p weight -132 0.61866760 0
c p weight 133 0.61063841 0
c p weight -133 0.38936159 0
c p weight 134 0.46195456 0
c p weight -134 0.53804544 0
c p weight 135 0.55627832 0
c p weight -135 0.44372168 0
c p weight 136 0.46000269 0
c p weight -136 0.53999731 0
c p weight 137 0.45107417 0
c p weight -137 0.54892583 0
c p weight 138 0.60893958 0
c p weight -138 0.39106042 0
c p weight 226 0.52949099 0
c p weight -226 0.47050901 0
c p weight 227 0.79804420 0
c p weight -227 0.20195580 0
c p weight 228 0.48942543 0
c p weight -228 0.51057457 0
c p weight 229 0.22199579 0
c p weight -229 0.77800421 0
c p weight 230 0.71765289 0
c p weight -230 0.28234711 0
c p weight 231 0.69676261 0
c p weight -231 0.30323739 0
c p weight 232 0.72326436 0
c p weight -232 0.27673564 0
c p weight 233 0.73811911 0
c p weight -233 0.26188089 0
c p weight 234 0.39162902 0
c p weight -234 0.60837098 0
c p weight 235 0.54027103 0
c p weight -235 0.45972897 0
c p weight 236 0.24786380 0
c p weight -236 0.75213620 0
c p weight 237 0.39082883 0
c p weight -237 0.60917117 0
c p weight 238 0.53586319 0
c p weight -238 0.46413681 0
c p weight 239 0.55258688 0
c p weight -239 0.44741312 0
c p weight 240 0.33597805 0
c p weight -240 0.66402195 0
c p weight 241 0.22202812 0
c p weight -241 0.77797188 0
c p weight 123 0.31529822 0
c p weight -123 0.68470178 0
c p weight 124 0.77864712 0
c p weight -124 0.22135288 0
c p weight 125 0.55343099 0
c p weight -125 0.44656901 0
c p weight 126 0.49562116 0
c p weight -126 0.50437884 0
c p weight 127 0.33437935 0
c p weight -127 0.66562065 0
